maximize
obj: 155 x_1_ + 144 x_2_ + 326 x_3_ + 478 x_4_ + 72 x_5_ + 530 x_6_ + 350 x_7_ + 397 x_8_ + 319 x_9_ + 416 x_10_ + 335 x_11_ - 235 x_12_ + 421 x_13_ + 770 x_14_ + 522 x_15_ + 710 x_16_ + 320 x_17_ + 231 x_18_ + 68 x_19_ + 574 x_20_ + 58 x_21_ + 572 x_22_ + 276 x_23_ + 166 x_24_ + 346 x_25_ + 376 x_26_ + 520 x_27_ + 198 x_28_ + 452 x_29_ + 104 x_30_ + 50 x_31_ + 416 x_32_ - 268 x_33_ + 292 x_34_ + 177 x_35_ + 362 x_36_ - 248 x_37_ + 689 x_38_ - 240 x_39_ - 180 x_40_ + 181 x_41_ + 293 x_42_ + 589 x_43_ + 68 x_44_ + 560 x_45_ + 50 x_46_ + 924 x_47_ + 578 x_48_ + 525 x_49_ - 502 x_50_ + 18 x_51_ + 452 x_52_ + 418 x_53_ + 8 x_54_ + 166 x_55_ - 280 x_56_ + 161 x_57_ + 571 x_58_ + 639 x_59_ + 779 x_60_ + 702 x_61_ + 689 x_62_ + 605 x_63_ + 129 x_64_ + 342 x_65_ + 151 x_66_ + 551 x_67_ + 90 x_68_ - 406 x_69_ + 18 x_70_ + 570 x_71_ + 262 x_72_ + 658 x_73_ + 484 x_74_ + 4 x_75_ + 1 x_76_ + 322 x_77_ + 8 x_78_ + 113 x_79_ + 53 x_80_ - 195 x_81_ - 204 x_82_ + 105 x_83_ + 6 x_84_ + 648 x_85_ - 182 x_86_ + 38 x_87_ + 75 x_88_ + 334 x_89_ + 63 x_90_ + 280 x_91_ + 76 x_92_ + 454 x_93_ + 286 x_94_ + 766 x_95_ + 161 x_96_ + 213 x_97_ + 110 x_98_ + 154 x_99_ + 600 x_100_ + 69 x_101_ + 354 x_102_ + 213 x_103_ + 121 x_104_ + 323 x_105_ + 523 x_106_ + 125 x_107_ + 899 x_108_ + 451 x_109_ + 646 x_110_ + 252 x_111_ - 197 x_112_ + 539 x_113_ + 349 x_114_ + 699 x_115_ + 561 x_116_ + 141 x_117_ - 204 x_118_ + 913 x_119_ + 885 x_120_ + 197 x_121_ + 209 x_122_ + 470 x_123_ + 113 x_124_ + 533 x_125_ + 152 x_126_ - 221 x_127_ + 146 x_128_ + 172 x_129_ + 56 x_130_ + 37 x_131_ + 453 x_132_ + 279 x_133_ + 549 x_134_ + 695 x_135_ + 767 x_136_ + 644 x_137_ + 71 x_138_ + 440 x_139_ + 579 x_140_ + 312 x_141_ + 370 x_142_ + 142 x_143_ + 667 x_144_ + 121 x_145_ + 252 x_146_ + 596 x_147_ + 503 x_148_ + 436 x_149_ + 29 x_150_ + 223 x_151_ + 686 x_152_ + 328 x_153_ + 120 x_154_ + 186 x_155_ - 322 x_156_ - 282 x_157_ + 583 x_158_ + 764 x_159_ + 331 x_160_ + 750 x_161_ + 593 x_162_ + 9 x_163_ + 135 x_164_ + 771 x_165_ + 13 x_166_ + 469 x_167_ + 184 x_168_ + 136 x_169_ + 187 x_170_ + 243 x_171_ + 71 x_172_ + 350 x_173_ - 406 x_174_ + 154 x_175_ + 87 x_176_ + 342 x_177_ - 209 x_178_ + 74 x_179_ + 842 x_181_ + 162 x_182_ + 392 x_183_ + 133 x_184_ + 359 x_185_ + 383 x_186_ + 357 x_187_ + 385 x_188_ + 324 x_189_ + 155 x_190_ + 25 x_191_ + 858 x_192_ - 278 x_193_ + 458 x_194_ + 138 x_195_ + 527 x_196_ + 304 x_197_ + 42 x_198_ + 596 x_199_ + 418 x_200_ - 277 x_201_ + 816 x_202_ + 435 x_203_ - 380 x_204_ + 383 x_205_ + 280 x_206_ + 138 x_207_ + 162 x_208_ + 176 x_209_ + 193 x_210_ + 319 x_211_ + 938 x_212_ + 415 x_213_ + 145 x_214_ + 533 x_215_ + 113 x_216_ + 328 x_217_ + 12 x_218_ + 334 x_219_ + 250 x_220_ + 146 x_221_ + 709 x_222_ + 454 x_223_ + 801 x_224_ + 705 x_225_ + 225 x_226_ + 102 x_227_ + 512 x_228_ + 368 x_229_ + 742 x_230_ + 46 x_231_ + 234 x_232_ + 629 x_233_ + 59 x_234_ - 359 x_235_ + 18 x_236_ + 111 x_237_ + 199 x_238_ + 835 x_239_ + 325 x_240_ + 723 x_241_ + 659 x_242_ + 22 x_243_ + 47 x_244_ + 90 x_245_ + 64 x_246_ + 286 x_247_ + 461 x_248_ + 22 x_249_ + 693 x_250_ + 1000 s_1_ + 1000 s_2_ + 1000 s_3_ + 1000 s_4_ + 1000 s_5_ + 1000 s_6_ + 1000 s_7_ + 1000 s_8_ + 1000 s_9_ + 1000 s_10_ - 1000 ss_1_
subject to
c2: 1 s_1_ + 727 x_1_ + 546 x_2_ + 265 x_3_ + 49 x_4_ + 992 x_5_ + 474 x_6_ + 282 x_7_ + 640 x_8_ + 672 x_9_ + 748 x_10_ + 975 x_11_ + 353 x_12_ + 700 x_13_ + 546 x_14_ + 806 x_15_ + 529 x_16_ + 495 x_17_ + 981 x_18_ + 237 x_19_ + 661 x_20_ + 196 x_21_ + 924 x_22_ + 672 x_23_ + 520 x_24_ + 232 x_25_ + 896 x_26_ + 309 x_27_ + 852 x_28_ + 941 x_29_ + 120 x_30_ + 414 x_31_ + 825 x_32_ + 501 x_33_ + 408 x_34_ + 356 x_35_ + 809 x_36_ + 13 x_37_ + 576 x_38_ + 571 x_39_ + 119 x_40_ + 830 x_41_ + 293 x_42_ + 930 x_43_ + 635 x_44_ + 858 x_45_ + 778 x_46_ + 359 x_47_ + 974 x_48_ + 274 x_49_ + 284 x_50_ + 213 x_51_ + 158 x_52_ + 554 x_53_ + 584 x_54_ + 388 x_55_ + 201 x_56_ + 25 x_57_ + 238 x_58_ + 604 x_59_ + 953 x_60_ + 138 x_61_ + 610 x_62_ + 753 x_63_ + 92 x_64_ + 68 x_65_ + 358 x_66_ + 149 x_67_ + 656 x_68_ + 521 x_69_ + 432 x_70_ + 25 x_71_ + 32 x_72_ + 825 x_73_ + 157 x_74_ + 258 x_75_ + 97 x_76_ + 244 x_77_ + 715 x_78_ + 843 x_79_ + 324 x_80_ + 930 x_81_ + 879 x_82_ + 6 x_83_ + 121 x_84_ + 811 x_85_ + 523 x_86_ + 322 x_87_ + 136 x_88_ + 445 x_89_ + 197 x_90_ + 43 x_91_ + 759 x_92_ + 784 x_93_ + 256 x_94_ + 148 x_95_ + 370 x_96_ + 139 x_97_ + 123 x_98_ + 21 x_99_ + 694 x_100_ + 557 x_101_ + 467 x_102_ + 492 x_103_ + 116 x_104_ + 819 x_105_ + 674 x_106_ + 381 x_107_ + 941 x_108_ + 789 x_109_ + 212 x_110_ + 826 x_111_ + 466 x_112_ + 646 x_113_ + 53 x_114_ + 897 x_115_ + 656 x_116_ + 359 x_117_ + 373 x_118_ + 728 x_119_ + 174 x_120_ + 739 x_121_ + 662 x_122_ + 961 x_123_ + 854 x_124_ + 776 x_125_ + 739 x_126_ + 117 x_127_ + 509 x_128_ + 907 x_129_ + 160 x_130_ + 778 x_131_ + 27 x_132_ + 864 x_133_ + 57 x_134_ + 868 x_135_ + 97 x_136_ + 756 x_137_ + 980 x_138_ + 317 x_139_ + 902 x_140_ + 890 x_141_ + 78 x_142_ + 780 x_143_ + 743 x_144_ + 159 x_145_ + 663 x_146_ + 918 x_147_ + 706 x_148_ + 759 x_149_ + 413 x_150_ + 72 x_151_ + 849 x_152_ + 780 x_153_ + 248 x_154_ + 823 x_155_ + 431 x_156_ + 410 x_157_ + 922 x_158_ + 926 x_159_ + 348 x_160_ + 651 x_161_ + 421 x_162_ + 285 x_163_ + 136 x_164_ + 587 x_165_ + 386 x_166_ + 721 x_167_ + 89 x_168_ + 362 x_169_ + 173 x_170_ + 440 x_171_ + 324 x_172_ + 813 x_173_ + 697 x_174_ + 457 x_175_ + 189 x_176_ + 989 x_177_ + 293 x_178_ + 997 x_179_ + 752 x_180_ + 738 x_181_ + 803 x_182_ + 560 x_183_ + 923 x_184_ + 455 x_185_ + 69 x_186_ + 150 x_187_ + 217 x_188_ + 453 x_189_ + 550 x_190_ + 277 x_191_ + 111 x_192_ + 899 x_193_ + 121 x_194_ + 766 x_195_ + 804 x_196_ + 269 x_197_ + 589 x_198_ + 363 x_199_ + 427 x_200_ + 920 x_201_ + 147 x_202_ + 488 x_203_ + 88 x_204_ + 990 x_205_ + 637 x_206_ + 585 x_207_ + 756 x_208_ + 206 x_209_ + 790 x_210_ + 959 x_211_ + 880 x_212_ + 193 x_213_ + 353 x_214_ + 609 x_215_ + 539 x_216_ + 900 x_217_ + 267 x_218_ + 356 x_219_ + 244 x_220_ + 769 x_221_ + 943 x_222_ + 619 x_223_ + 14 x_224_ + 732 x_225_ + 741 x_226_ + 805 x_227_ + 655 x_228_ + 158 x_229_ + 146 x_230_ + 850 x_231_ + 903 x_232_ + 724 x_233_ + 527 x_234_ + 19 x_235_ + 912 x_236_ + 20 x_237_ + 41 x_238_ + 563 x_239_ + 386 x_240_ + 436 x_241_ + 267 x_242_ + 378 x_243_ + 716 x_244_ + 419 x_245_ + 981 x_246_ + 379 x_247_ + 833 x_248_ + 340 x_249_ + 482 x_250_ <= 31914
c3: 1 s_2_ + 682 x_1_ + 920 x_2_ + 463 x_3_ + 373 x_4_ + 912 x_5_ + 194 x_6_ + 550 x_7_ + 25 x_8_ + 346 x_9_ + 81 x_10_ + 135 x_11_ + 419 x_12_ + 909 x_13_ + 229 x_14_ + 158 x_15_ + 200 x_16_ + 722 x_17_ + 822 x_18_ + 207 x_19_ + 6 x_20_ + 609 x_21_ + 177 x_22_ + 783 x_23_ + 331 x_24_ + 30 x_25_ + 722 x_26_ + 113 x_27_ + 256 x_28_ + 470 x_29_ + 630 x_30_ + 15 x_31_ + 852 x_32_ + 729 x_33_ + 421 x_34_ + 734 x_35_ + 455 x_36_ + 20 x_37_ + 474 x_38_ + 231 x_39_ + 213 x_40_ + 925 x_41_ + 850 x_42_ + 711 x_43_ + 646 x_44_ + 318 x_45_ + 574 x_46_ + 86 x_47_ + 855 x_48_ + 109 x_49_ + 217 x_50_ + 720 x_51_ + 203 x_52_ + 306 x_53_ + 215 x_54_ + 206 x_55_ + 624 x_56_ + 213 x_57_ + 204 x_58_ + 441 x_59_ + 857 x_60_ + 530 x_61_ + 208 x_62_ + 484 x_63_ + 775 x_64_ + 223 x_65_ + 532 x_66_ + 486 x_67_ + 454 x_68_ + 87 x_69_ + 669 x_70_ + 746 x_71_ + 40 x_72_ + 902 x_73_ + 35 x_74_ + 407 x_75_ + 252 x_76_ + 523 x_77_ + 792 x_78_ + 693 x_79_ + 604 x_80_ + 820 x_81_ + 729 x_82_ + 895 x_83_ + 954 x_84_ + 821 x_85_ + 974 x_86_ + 913 x_87_ + 744 x_88_ + 654 x_89_ + 234 x_90_ + 438 x_91_ + 881 x_92_ + 111 x_93_ + 769 x_94_ + 787 x_95_ + 451 x_96_ + 949 x_97_ + 572 x_98_ + 256 x_99_ + 745 x_100_ + 233 x_101_ + 749 x_102_ + 76 x_103_ + 43 x_104_ + 765 x_105_ + 11 x_106_ + 302 x_107_ + 468 x_108_ + 718 x_109_ + 965 x_110_ + 715 x_111_ + 895 x_112_ + 87 x_113_ + 134 x_114_ + 2 x_115_ + 225 x_116_ + 228 x_117_ + 686 x_118_ + 665 x_119_ + 860 x_120_ + 601 x_121_ + 490 x_122_ + 302 x_123_ + 768 x_124_ + 277 x_125_ + 736 x_126_ + 53 x_127_ + 274 x_128_ + 819 x_129_ + 469 x_130_ + 284 x_131_ + 122 x_132_ + 786 x_133_ + 370 x_134_ + 991 x_135_ + 485 x_136_ + 130 x_137_ + 226 x_138_ + 716 x_139_ + 480 x_140_ + 605 x_141_ + 324 x_142_ + 367 x_143_ + 903 x_144_ + 966 x_145_ + 745 x_146_ + 716 x_147_ + 96 x_148_ + 109 x_149_ + 501 x_150_ + 773 x_151_ + 99 x_152_ + 966 x_153_ + 726 x_154_ + 169 x_155_ + 374 x_156_ + 68 x_157_ + 917 x_158_ + 425 x_159_ + 666 x_160_ + 569 x_161_ + 687 x_162_ + 441 x_163_ + 487 x_164_ + 50 x_165_ + 178 x_166_ + 579 x_167_ + 128 x_168_ + 668 x_169_ + 968 x_170_ + 603 x_171_ + 278 x_172_ + 794 x_173_ + 93 x_174_ + 489 x_175_ + 301 x_176_ + 177 x_177_ + 945 x_178_ + 874 x_179_ + 65 x_180_ + 489 x_181_ + 492 x_182_ + 798 x_183_ + 390 x_184_ + 484 x_185_ + 996 x_186_ + 576 x_187_ + 666 x_188_ + 732 x_189_ + 416 x_190_ + 367 x_191_ + 851 x_192_ + 599 x_193_ + 530 x_194_ + 535 x_195_ + 624 x_196_ + 305 x_197_ + 975 x_198_ + 943 x_199_ + 994 x_200_ + 181 x_201_ + 597 x_202_ + 312 x_203_ + 574 x_204_ + 171 x_205_ + 417 x_206_ + 402 x_207_ + 25 x_208_ + 496 x_209_ + 190 x_210_ + 254 x_211_ + 970 x_212_ + 672 x_213_ + 956 x_214_ + 387 x_215_ + 853 x_216_ + 485 x_217_ + 430 x_218_ + 226 x_219_ + 261 x_220_ + 29 x_221_ + 186 x_222_ + 824 x_223_ + 479 x_224_ + 596 x_225_ + 606 x_226_ + 775 x_227_ + 199 x_228_ + 575 x_229_ + 16 x_230_ + 739 x_231_ + 907 x_232_ + 291 x_233_ + 10 x_234_ + 901 x_235_ + 889 x_236_ + 601 x_237_ + 359 x_238_ + 977 x_239_ + 42 x_240_ + 59 x_241_ + 776 x_242_ + 496 x_243_ + 531 x_244_ + 635 x_245_ + 108 x_246_ + 205 x_247_ + 943 x_248_ + 191 x_249_ + 995 x_250_ <= 30923
c4: 1 s_3_ + 224 x_1_ + 887 x_2_ + 159 x_3_ + 938 x_4_ + 596 x_5_ + 532 x_6_ + 378 x_7_ + 132 x_8_ + 536 x_9_ + 290 x_10_ + 91 x_11_ + 13 x_12_ + 872 x_13_ + 884 x_14_ + 520 x_15_ + 710 x_16_ + 57 x_17_ + 159 x_18_ + 388 x_19_ + 742 x_20_ + 639 x_21_ + 49 x_22_ + 593 x_23_ + 535 x_24_ + 943 x_25_ + 654 x_26_ + 632 x_27_ + 156 x_28_ + 467 x_29_ + 309 x_30_ + 884 x_31_ + 196 x_32_ + 609 x_33_ + 919 x_34_ + 297 x_35_ + 536 x_36_ + 730 x_37_ + 955 x_38_ + 352 x_39_ + 91 x_40_ + 595 x_41_ + 554 x_42_ + 831 x_43_ + 134 x_44_ + 333 x_45_ + 509 x_46_ + 674 x_47_ + 736 x_48_ + 637 x_49_ + 200 x_50_ + 116 x_51_ + 8 x_52_ + 827 x_53_ + 237 x_54_ + 188 x_55_ + 139 x_56_ + 339 x_57_ + 585 x_58_ + 592 x_59_ + 460 x_60_ + 638 x_61_ + 167 x_62_ + 202 x_63_ + 143 x_64_ + 821 x_65_ + 382 x_66_ + 901 x_67_ + 68 x_68_ + 826 x_69_ + 723 x_70_ + 53 x_71_ + 75 x_72_ + 431 x_73_ + 830 x_74_ + 978 x_75_ + 699 x_76_ + 899 x_77_ + 326 x_78_ + 995 x_79_ + 739 x_80_ + 432 x_81_ + 707 x_82_ + 273 x_83_ + 124 x_84_ + 534 x_85_ + 368 x_86_ + 291 x_87_ + 101 x_88_ + 365 x_89_ + 452 x_90_ + 955 x_91_ + 605 x_92_ + 268 x_93_ + 693 x_94_ + 146 x_95_ + 486 x_96_ + 237 x_97_ + 644 x_98_ + 329 x_99_ + 78 x_100_ + 269 x_101_ + 78 x_102_ + 75 x_103_ + 748 x_104_ + 388 x_105_ + 839 x_106_ + 459 x_107_ + 253 x_108_ + 593 x_109_ + 143 x_110_ + 9 x_111_ + 668 x_112_ + 867 x_113_ + 25 x_114_ + 163 x_115_ + 675 x_116_ + 303 x_117_ + 160 x_118_ + 709 x_119_ + 700 x_120_ + 332 x_121_ + 265 x_122_ + 369 x_123_ + 326 x_124_ + 928 x_125_ + 94 x_126_ + 309 x_127_ + 712 x_128_ + 96 x_129_ + 488 x_130_ + 455 x_131_ + 494 x_132_ + 994 x_133_ + 218 x_134_ + 904 x_135_ + 543 x_136_ + 515 x_137_ + 877 x_138_ + 411 x_139_ + 563 x_140_ + 296 x_141_ + 335 x_142_ + 373 x_143_ + 780 x_144_ + 69 x_145_ + 610 x_146_ + 994 x_147_ + 3 x_148_ + 694 x_149_ + 598 x_150_ + 76 x_151_ + 824 x_152_ + 953 x_153_ + 446 x_154_ + 994 x_155_ + 350 x_156_ + 968 x_157_ + 75 x_158_ + 409 x_159_ + 149 x_160_ + 111 x_161_ + 811 x_162_ + 893 x_163_ + 773 x_164_ + 186 x_165_ + 911 x_166_ + 854 x_167_ + 34 x_168_ + 492 x_169_ + 191 x_170_ + 947 x_171_ + 780 x_172_ + 599 x_173_ + 702 x_174_ + 103 x_175_ + 404 x_176_ + 30 x_177_ + 798 x_178_ + 486 x_179_ + 374 x_180_ + 820 x_181_ + 161 x_182_ + 382 x_183_ + 201 x_184_ + 179 x_185_ + 532 x_186_ + 662 x_187_ + 95 x_188_ + 60 x_189_ + 836 x_190_ + 759 x_191_ + 893 x_192_ + 857 x_193_ + 157 x_194_ + 468 x_195_ + 522 x_196_ + 884 x_197_ + 654 x_198_ + 595 x_199_ + 335 x_200_ + 702 x_201_ + 143 x_202_ + 457 x_203_ + 283 x_204_ + 950 x_205_ + 614 x_206_ + 271 x_207_ + 475 x_208_ + 447 x_209_ + 340 x_210_ + 567 x_211_ + 971 x_212_ + 576 x_213_ + 130 x_214_ + 980 x_215_ + 559 x_216_ + 291 x_217_ + 938 x_218_ + 484 x_219_ + 129 x_220_ + 893 x_221_ + 144 x_222_ + 727 x_223_ + 648 x_224_ + 383 x_225_ + 949 x_226_ + 213 x_227_ + 501 x_228_ + 608 x_229_ + 207 x_230_ + 392 x_231_ + 93 x_232_ + 393 x_233_ + 434 x_234_ + 470 x_235_ + 669 x_236_ + 278 x_237_ + 397 x_238_ + 845 x_239_ + 233 x_240_ + 416 x_241_ + 564 x_242_ + 141 x_243_ + 970 x_244_ + 411 x_245_ + 745 x_246_ + 583 x_247_ + 771 x_248_ + 40 x_249_ + 962 x_250_ <= 30316
c5: 1 s_4_ + 14 x_1_ + 778 x_2_ + 170 x_3_ + 424 x_4_ + 345 x_5_ + 191 x_6_ + 832 x_7_ + 492 x_8_ + 902 x_9_ + 766 x_10_ + 199 x_11_ + 58 x_12_ + 638 x_13_ + 100 x_14_ + 518 x_15_ + 955 x_16_ + 562 x_17_ + 691 x_18_ + 366 x_19_ + 180 x_20_ + 385 x_21_ + 686 x_22_ + 432 x_23_ + 752 x_24_ + 623 x_25_ + 699 x_26_ + 20 x_27_ + 277 x_28_ + 725 x_29_ + 244 x_30_ + 810 x_31_ + 777 x_32_ + 779 x_33_ + 524 x_34_ + 915 x_35_ + 972 x_36_ + 469 x_37_ + 833 x_38_ + 821 x_39_ + 202 x_40_ + 56 x_41_ + 989 x_42_ + 281 x_43_ + 262 x_44_ + 315 x_45_ + 149 x_46_ + 196 x_47_ + 704 x_48_ + 750 x_49_ + 558 x_50_ + 479 x_51_ + 818 x_52_ + 811 x_53_ + 986 x_54_ + 695 x_55_ + 758 x_56_ + 871 x_57_ + 479 x_58_ + 956 x_59_ + 264 x_60_ + 303 x_61_ + 458 x_62_ + 922 x_63_ + 210 x_64_ + 818 x_65_ + 534 x_66_ + 705 x_67_ + 739 x_68_ + 547 x_69_ + 262 x_70_ + 365 x_71_ + 911 x_72_ + 635 x_73_ + 299 x_74_ + 261 x_75_ + 604 x_76_ + 232 x_77_ + 406 x_78_ + 411 x_79_ + 562 x_80_ + 560 x_81_ + 933 x_82_ + 200 x_83_ + 968 x_84_ + 867 x_85_ + 822 x_86_ + 270 x_87_ + 87 x_88_ + 715 x_89_ + 781 x_90_ + 18 x_91_ + 735 x_92_ + 341 x_93_ + 965 x_94_ + 327 x_95_ + 731 x_96_ + 613 x_97_ + 967 x_98_ + 132 x_99_ + 14 x_100_ + 155 x_101_ + 934 x_102_ + 344 x_103_ + 330 x_104_ + 879 x_105_ + 815 x_106_ + 331 x_107_ + 596 x_108_ + 325 x_109_ + 809 x_110_ + 852 x_111_ + 289 x_112_ + 193 x_113_ + 936 x_114_ + 898 x_115_ + 478 x_116_ + 425 x_117_ + 953 x_118_ + 924 x_119_ + 658 x_120_ + 733 x_121_ + 301 x_122_ + 23 x_123_ + 989 x_124_ + 919 x_125_ + 389 x_126_ + 450 x_127_ + 389 x_128_ + 386 x_129_ + 906 x_130_ + 803 x_131_ + 45 x_132_ + 692 x_133_ + 145 x_134_ + 879 x_135_ + 52 x_136_ + 932 x_137_ + 41 x_138_ + 236 x_139_ + 781 x_140_ + 890 x_141_ + 901 x_142_ + 375 x_143_ + 292 x_144_ + 129 x_145_ + 839 x_146_ + 956 x_147_ + 996 x_148_ + 181 x_149_ + 443 x_150_ + 825 x_151_ + 737 x_152_ + 243 x_153_ + 655 x_154_ + 874 x_155_ + 816 x_156_ + 781 x_157_ + 427 x_158_ + 42 x_159_ + 416 x_160_ + 339 x_161_ + 348 x_162_ + 414 x_163_ + 343 x_164_ + 920 x_165_ + 264 x_166_ + 721 x_167_ + 12 x_168_ + 986 x_169_ + 705 x_170_ + 503 x_171_ + 504 x_172_ + 47 x_173_ + 298 x_174_ + 235 x_175_ + 92 x_176_ + 55 x_177_ + 907 x_178_ + 847 x_179_ + 201 x_180_ + 958 x_181_ + 732 x_182_ + 542 x_183_ + 465 x_184_ + 470 x_185_ + 683 x_186_ + 491 x_187_ + 41 x_188_ + 959 x_189_ + 845 x_190_ + 864 x_191_ + 155 x_192_ + 878 x_193_ + 519 x_194_ + 678 x_195_ + 453 x_196_ + 726 x_197_ + 498 x_198_ + 255 x_199_ + 563 x_200_ + 137 x_201_ + 759 x_202_ + 445 x_203_ + 533 x_204_ + 508 x_205_ + 920 x_206_ + 88 x_207_ + 625 x_208_ + 869 x_209_ + 90 x_210_ + 290 x_211_ + 734 x_212_ + 942 x_213_ + 260 x_214_ + 579 x_215_ + 405 x_216_ + 455 x_217_ + 377 x_218_ + 579 x_219_ + 448 x_220_ + 613 x_221_ + 949 x_222_ + 539 x_223_ + 831 x_224_ + 924 x_225_ + 329 x_226_ + 90 x_227_ + 415 x_228_ + 53 x_229_ + 823 x_230_ + 568 x_231_ + 473 x_232_ + 296 x_233_ + 540 x_234_ + 157 x_235_ + 204 x_236_ + 649 x_237_ + 992 x_238_ + 295 x_239_ + 170 x_240_ + 978 x_241_ + 494 x_242_ + 789 x_243_ + 499 x_244_ + 371 x_245_ + 76 x_246_ + 607 x_247_ + 459 x_248_ + 908 x_249_ + 490 x_250_ <= 33477
c6: 1 s_5_ + 393 x_1_ + 156 x_2_ + 262 x_3_ + 186 x_4_ + 323 x_5_ + 84 x_6_ + 837 x_7_ + 148 x_8_ + 698 x_9_ + 764 x_10_ + 743 x_11_ + 591 x_12_ + 917 x_13_ + 318 x_14_ + 513 x_15_ + 374 x_16_ + 55 x_17_ + 116 x_18_ + 901 x_19_ + 344 x_20_ + 847 x_21_ + 424 x_22_ + 462 x_23_ + 214 x_24_ + 937 x_25_ + 663 x_26_ + 151 x_27_ + 67 x_28_ + 162 x_29_ + 716 x_30_ + 286 x_31_ + 925 x_32_ + 974 x_33_ + 942 x_34_ + 20 x_35_ + 5 x_36_ + 481 x_37_ + 897 x_38_ + 490 x_39_ + 263 x_40_ + 567 x_41_ + 302 x_42_ + 690 x_43_ + 690 x_44_ + 189 x_45_ + 625 x_46_ + 883 x_47_ + 279 x_48_ + 572 x_49_ + 62 x_50_ + 522 x_51_ + 114 x_52_ + 905 x_53_ + 427 x_54_ + 448 x_55_ + 34 x_56_ + 805 x_57_ + 195 x_58_ + 704 x_59_ + 888 x_60_ + 21 x_61_ + 840 x_62_ + 253 x_63_ + 506 x_64_ + 145 x_65_ + 454 x_66_ + 358 x_67_ + 692 x_68_ + 837 x_69_ + 135 x_70_ + 193 x_71_ + 955 x_72_ + 849 x_73_ + 90 x_74_ + 688 x_75_ + 849 x_76_ + 208 x_77_ + 267 x_78_ + 173 x_79_ + 190 x_80_ + 155 x_81_ + 169 x_82_ + 199 x_83_ + 509 x_84_ + 564 x_85_ + 634 x_86_ + 738 x_87_ + 427 x_88_ + 554 x_89_ + 255 x_90_ + 888 x_91_ + 806 x_92_ + 823 x_93_ + 678 x_94_ + 985 x_95_ + 585 x_96_ + 514 x_97_ + 995 x_98_ + 339 x_99_ + 145 x_100_ + 453 x_101_ + 78 x_102_ + 3 x_103_ + 886 x_104_ + 407 x_105_ + 459 x_106_ + 583 x_107_ + 330 x_108_ + 199 x_109_ + 996 x_110_ + 665 x_111_ + 268 x_112_ + 341 x_113_ + 526 x_114_ + 139 x_115_ + 42 x_116_ + 784 x_117_ + 382 x_118_ + 874 x_119_ + 783 x_120_ + 591 x_121_ + 802 x_122_ + 381 x_123_ + 386 x_124_ + 609 x_125_ + 655 x_126_ + 98 x_127_ + 362 x_128_ + 10 x_129_ + 670 x_130_ + 621 x_131_ + 259 x_132_ + 260 x_133_ + 350 x_134_ + 952 x_135_ + 946 x_136_ + 961 x_137_ + 463 x_138_ + 888 x_139_ + 775 x_140_ + 90 x_141_ + 979 x_142_ + 613 x_143_ + 359 x_144_ + 681 x_145_ + 253 x_146_ + 680 x_147_ + 63 x_148_ + 766 x_149_ + 119 x_150_ + 378 x_151_ + 256 x_152_ + 413 x_153_ + 525 x_154_ + 688 x_155_ + 37 x_156_ + 890 x_157_ + 379 x_158_ + 720 x_159_ + 566 x_160_ + 809 x_161_ + 383 x_162_ + 986 x_163_ + 74 x_164_ + 887 x_165_ + 758 x_166_ + 815 x_167_ + 246 x_168_ + 248 x_169_ + 191 x_170_ + 403 x_171_ + 359 x_172_ + 903 x_173_ + 729 x_174_ + 714 x_175_ + 233 x_176_ + 744 x_177_ + 198 x_178_ + 52 x_179_ + 230 x_180_ + 38 x_181_ + 708 x_182_ + 512 x_183_ + 613 x_184_ + 227 x_185_ + 144 x_186_ + 441 x_187_ + 704 x_188_ + 42 x_189_ + 801 x_190_ + 419 x_191_ + 307 x_192_ + 406 x_193_ + 461 x_194_ + 44 x_195_ + 166 x_196_ + 368 x_197_ + 686 x_198_ + 810 x_199_ + 50 x_200_ + 555 x_201_ + 995 x_202_ + 57 x_203_ + 562 x_204_ + 905 x_205_ + 174 x_206_ + 945 x_207_ + 417 x_208_ + 417 x_209_ + 8 x_210_ + 544 x_211_ + 805 x_212_ + 367 x_213_ + 359 x_214_ + 981 x_215_ + 150 x_216_ + 633 x_217_ + 642 x_218_ + 864 x_219_ + 706 x_220_ + 146 x_221_ + 58 x_222_ + 507 x_223_ + 691 x_224_ + 313 x_225_ + 801 x_226_ + 529 x_227_ + 647 x_228_ + 367 x_229_ + 704 x_230_ + 664 x_231_ + 78 x_232_ + 419 x_233_ + 722 x_234_ + 136 x_235_ + 473 x_236_ + 685 x_237_ + 354 x_238_ + 952 x_239_ + 55 x_240_ + 373 x_241_ + 292 x_242_ + 37 x_243_ + 822 x_244_ + 385 x_245_ + 694 x_246_ + 233 x_247_ + 779 x_248_ + 176 x_249_ + 732 x_250_ <= 30182
c7: 1 s_6_ + 309 x_1_ + 363 x_2_ + 377 x_3_ + 862 x_4_ + 271 x_5_ + 974 x_6_ + 363 x_7_ + 795 x_8_ + 770 x_9_ + 774 x_10_ + 19 x_11_ + 954 x_12_ + 545 x_13_ + 506 x_14_ + 463 x_15_ + 717 x_16_ + 521 x_17_ + 483 x_18_ + 845 x_19_ + 188 x_20_ + 664 x_21_ + 283 x_22_ + 67 x_23_ + 690 x_24_ + 537 x_25_ + 152 x_26_ + 661 x_27_ + 449 x_28_ + 229 x_29_ + 637 x_30_ + 487 x_31_ + 158 x_32_ + 184 x_33_ + 371 x_34_ + 920 x_35_ + 109 x_36_ + 745 x_37_ + 402 x_38_ + 867 x_39_ + 331 x_40_ + 920 x_41_ + 802 x_42_ + 92 x_43_ + 533 x_44_ + 132 x_45_ + 199 x_46_ + 328 x_47_ + 124 x_48_ + 452 x_49_ + 287 x_50_ + 81 x_51_ + 476 x_52_ + 449 x_53_ + 925 x_54_ + 507 x_55_ + 873 x_56_ + 645 x_57_ + 276 x_58_ + 162 x_59_ + 9 x_60_ + 831 x_61_ + 851 x_62_ + 983 x_63_ + 160 x_64_ + 25 x_65_ + 962 x_66_ + 55 x_67_ + 502 x_68_ + 400 x_69_ + 376 x_70_ + 762 x_71_ + 560 x_72_ + 25 x_73_ + 362 x_74_ + 755 x_75_ + 113 x_76_ + 83 x_77_ + 476 x_78_ + 437 x_79_ + 278 x_80_ + 760 x_81_ + 423 x_82_ + 256 x_83_ + 204 x_84_ + 651 x_85_ + 494 x_86_ + 950 x_87_ + 242 x_88_ + 321 x_89_ + 440 x_90_ + 560 x_91_ + 102 x_92_ + 184 x_93_ + 933 x_94_ + 863 x_95_ + 473 x_96_ + 496 x_97_ + 209 x_98_ + 228 x_99_ + 234 x_100_ + 219 x_101_ + 521 x_102_ + 463 x_103_ + 899 x_104_ + 958 x_105_ + 625 x_106_ + 112 x_107_ + 13 x_108_ + 492 x_109_ + 345 x_110_ + 766 x_111_ + 316 x_112_ + 103 x_113_ + 498 x_114_ + 706 x_115_ + 162 x_116_ + 358 x_117_ + 725 x_118_ + 739 x_119_ + 693 x_120_ + 117 x_121_ + 966 x_122_ + 624 x_123_ + 408 x_124_ + 640 x_125_ + 619 x_126_ + 880 x_127_ + 402 x_128_ + 549 x_129_ + 255 x_130_ + 593 x_131_ + 536 x_132_ + 396 x_133_ + 148 x_134_ + 170 x_135_ + 491 x_136_ + 951 x_137_ + 596 x_138_ + 433 x_139_ + 202 x_140_ + 201 x_141_ + 502 x_142_ + 76 x_143_ + 406 x_144_ + 568 x_145_ + 425 x_146_ + 864 x_147_ + 327 x_148_ + 402 x_149_ + 738 x_150_ + 235 x_151_ + 153 x_152_ + 945 x_153_ + 781 x_154_ + 594 x_155_ + 182 x_156_ + 63 x_157_ + 333 x_158_ + 33 x_159_ + 674 x_160_ + 800 x_161_ + 316 x_162_ + 934 x_163_ + 57 x_164_ + 97 x_165_ + 257 x_166_ + 404 x_167_ + 50 x_168_ + 596 x_169_ + 820 x_170_ + 625 x_171_ + 759 x_172_ + 560 x_173_ + 99 x_174_ + 142 x_175_ + 907 x_176_ + 995 x_177_ + 954 x_178_ + 98 x_179_ + 787 x_180_ + 519 x_181_ + 413 x_182_ + 581 x_183_ + 815 x_184_ + 309 x_185_ + 117 x_186_ + 341 x_187_ + 329 x_188_ + 221 x_189_ + 187 x_190_ + 411 x_191_ + 819 x_192_ + 152 x_193_ + 144 x_194_ + 202 x_195_ + 861 x_196_ + 699 x_197_ + 304 x_198_ + 469 x_199_ + 709 x_200_ + 77 x_201_ + 450 x_202_ + 61 x_203_ + 182 x_204_ + 595 x_205_ + 209 x_206_ + 597 x_207_ + 516 x_208_ + 655 x_209_ + 143 x_210_ + 478 x_211_ + 509 x_212_ + 261 x_213_ + 14 x_214_ + 242 x_215_ + 599 x_216_ + 73 x_217_ + 278 x_218_ + 441 x_219_ + 401 x_220_ + 929 x_221_ + 750 x_222_ + 884 x_223_ + 627 x_224_ + 175 x_225_ + 99 x_226_ + 517 x_227_ + 588 x_228_ + 859 x_229_ + 666 x_230_ + 683 x_231_ + 711 x_232_ + 402 x_233_ + 941 x_234_ + 215 x_235_ + 541 x_236_ + 72 x_237_ + 894 x_238_ + 784 x_239_ + 353 x_240_ + 878 x_241_ + 887 x_242_ + 174 x_243_ + 110 x_244_ + 852 x_245_ + 334 x_246_ + 161 x_247_ + 224 x_248_ + 925 x_249_ + 105 x_250_ <= 29126
c8: 1 s_7_ + 567 x_1_ + 293 x_2_ + 677 x_3_ + 45 x_4_ + 575 x_5_ + 386 x_6_ + 27 x_7_ + 846 x_8_ + 168 x_9_ + 293 x_10_ + 671 x_11_ + 709 x_12_ + 689 x_13_ + 486 x_14_ + 474 x_15_ + 589 x_16_ + 263 x_17_ + 861 x_18_ + 272 x_19_ + 140 x_20_ + 136 x_21_ + 337 x_22_ + 118 x_23_ + 386 x_24_ + 58 x_25_ + 85 x_26_ + 491 x_27_ + 779 x_28_ + 906 x_29_ + 604 x_30_ + 217 x_31_ + 813 x_32_ + 862 x_33_ + 86 x_34_ + 232 x_35_ + 248 x_36_ + 922 x_37_ + 649 x_38_ + 158 x_39_ + 119 x_40_ + 843 x_41_ + 681 x_42_ + 440 x_43_ + 187 x_44_ + 140 x_45_ + 963 x_46_ + 559 x_47_ + 226 x_48_ + 548 x_49_ + 741 x_50_ + 147 x_51_ + 850 x_52_ + 332 x_53_ + 190 x_54_ + 425 x_55_ + 145 x_56_ + 169 x_57_ + 44 x_58_ + 660 x_59_ + 983 x_60_ + 990 x_61_ + 984 x_62_ + 820 x_63_ + 153 x_64_ + 871 x_65_ + 972 x_66_ + 33 x_67_ + 295 x_68_ + 149 x_69_ + 232 x_70_ + 446 x_71_ + 496 x_72_ + 164 x_73_ + 32 x_74_ + 750 x_75_ + 379 x_76_ + 246 x_77_ + 406 x_78_ + 440 x_79_ + 525 x_80_ + 814 x_81_ + 430 x_82_ + 161 x_83_ + 921 x_84_ + 908 x_85_ + 53 x_86_ + 669 x_87_ + 274 x_88_ + 948 x_89_ + 9 x_90_ + 974 x_91_ + 33 x_92_ + 780 x_93_ + 575 x_94_ + 40 x_95_ + 719 x_96_ + 537 x_97_ + 254 x_98_ + 34 x_99_ + 274 x_100_ + 33 x_101_ + 679 x_102_ + 829 x_103_ + 88 x_104_ + 158 x_105_ + 809 x_106_ + 857 x_107_ + 413 x_108_ + 999 x_109_ + 734 x_110_ + 868 x_111_ + 228 x_112_ + 974 x_113_ + 592 x_114_ + 754 x_115_ + 167 x_116_ + 113 x_117_ + 641 x_118_ + 620 x_119_ + 423 x_120_ + 2 x_121_ + 348 x_122_ + 864 x_123_ + 706 x_124_ + 661 x_125_ + 79 x_126_ + 467 x_127_ + 639 x_128_ + 508 x_129_ + 653 x_130_ + 161 x_131_ + 962 x_132_ + 133 x_133_ + 566 x_134_ + 601 x_135_ + 848 x_136_ + 14 x_137_ + 589 x_138_ + 297 x_139_ + 946 x_140_ + 174 x_141_ + 972 x_142_ + 349 x_143_ + 385 x_144_ + 107 x_145_ + 466 x_146_ + 574 x_147_ + 94 x_148_ + 515 x_149_ + 392 x_150_ + 868 x_151_ + 847 x_152_ + 107 x_153_ + 615 x_154_ + 435 x_155_ + 464 x_156_ + 800 x_157_ + 769 x_158_ + 591 x_159_ + 879 x_160_ + 761 x_161_ + 233 x_162_ + 320 x_163_ + 358 x_164_ + 257 x_165_ + 964 x_166_ + 419 x_167_ + 798 x_168_ + 94 x_169_ + 596 x_170_ + 278 x_171_ + 16 x_172_ + 331 x_173_ + 336 x_174_ + 281 x_175_ + 651 x_176_ + 926 x_177_ + 477 x_178_ + 245 x_179_ + 661 x_180_ + 1000 x_181_ + 779 x_182_ + 366 x_183_ + 338 x_184_ + 440 x_185_ + 936 x_186_ + 304 x_187_ + 229 x_188_ + 686 x_189_ + 109 x_190_ + 954 x_191_ + 17 x_192_ + 48 x_193_ + 474 x_194_ + 85 x_195_ + 382 x_196_ + 302 x_197_ + 745 x_198_ + 531 x_199_ + 36 x_200_ + 390 x_201_ + 165 x_202_ + 752 x_203_ + 425 x_204_ + 351 x_205_ + 74 x_206_ + 426 x_207_ + 218 x_208_ + 614 x_209_ + 161 x_210_ + 135 x_211_ + 52 x_212_ + 707 x_213_ + 2 x_214_ + 426 x_215_ + 528 x_216_ + 112 x_217_ + 856 x_218_ + 757 x_219_ + 608 x_220_ + 54 x_221_ + 362 x_222_ + 766 x_223_ + 628 x_224_ + 448 x_225_ + 735 x_226_ + 617 x_227_ + 178 x_228_ + 948 x_229_ + 975 x_230_ + 313 x_231_ + 961 x_232_ + 365 x_233_ + 513 x_234_ + 183 x_235_ + 588 x_236_ + 362 x_237_ + 697 x_238_ + 134 x_239_ + 351 x_240_ + 220 x_241_ + 166 x_242_ + 356 x_243_ + 835 x_244_ + 89 x_245_ + 60 x_246_ + 184 x_247_ + 353 x_248_ + 636 x_249_ + 798 x_250_ <= 29031
c9: 1 s_8_ + 131 x_1_ + 665 x_2_ + 193 x_3_ + 521 x_4_ + 521 x_5_ + 896 x_6_ + 745 x_7_ + 489 x_8_ + 445 x_9_ + 578 x_10_ + 658 x_11_ + 748 x_12_ + 429 x_13_ + 45 x_14_ + 347 x_15_ + 40 x_16_ + 474 x_17_ + 449 x_18_ + 578 x_19_ + 213 x_20_ + 582 x_21_ + 152 x_22_ + 727 x_23_ + 323 x_24_ + 923 x_25_ + 570 x_26_ + 852 x_27_ + 146 x_28_ + 672 x_29_ + 590 x_30_ + 691 x_31_ + 67 x_32_ + 667 x_33_ + 384 x_34_ + 942 x_35_ + 378 x_36_ + 844 x_37_ + 613 x_38_ + 356 x_39_ + 623 x_40_ + 143 x_41_ + 567 x_42_ + 144 x_43_ + 961 x_44_ + 975 x_45_ + 368 x_46_ + 601 x_47_ + 722 x_48_ + 275 x_49_ + 568 x_50_ + 698 x_51_ + 128 x_52_ + 74 x_53_ + 263 x_54_ + 287 x_55_ + 41 x_56_ + 670 x_57_ + 738 x_58_ + 20 x_59_ + 788 x_60_ + 978 x_61_ + 550 x_62_ + 357 x_63_ + 847 x_64_ + 651 x_65_ + 973 x_66_ + 925 x_67_ + 916 x_68_ + 719 x_69_ + 803 x_70_ + 168 x_71_ + 370 x_72_ + 728 x_73_ + 887 x_74_ + 743 x_75_ + 701 x_76_ + 335 x_77_ + 778 x_78_ + 790 x_79_ + 414 x_80_ + 673 x_81_ + 266 x_82_ + 503 x_83_ + 744 x_84_ + 43 x_85_ + 931 x_86_ + 453 x_87_ + 143 x_88_ + 100 x_89_ + 42 x_90_ + 400 x_91_ + 473 x_92_ + 318 x_93_ + 921 x_94_ + 651 x_95_ + 969 x_96_ + 812 x_97_ + 561 x_98_ + 551 x_99_ + 456 x_100_ + 491 x_101_ + 635 x_102_ + 933 x_103_ + 610 x_104_ + 728 x_105_ + 436 x_106_ + 734 x_107_ + 857 x_108_ + 789 x_109_ + 964 x_110_ + 283 x_111_ + 157 x_112_ + 803 x_113_ + 13 x_114_ + 795 x_115_ + 558 x_116_ + 207 x_117_ + 708 x_118_ + 712 x_119_ + 567 x_120_ + 692 x_121_ + 338 x_122_ + 584 x_123_ + 186 x_124_ + 268 x_125_ + 927 x_126_ + 757 x_127_ + 611 x_128_ + 86 x_129_ + 266 x_130_ + 11 x_131_ + 510 x_132_ + 326 x_133_ + 811 x_134_ + 572 x_135_ + 871 x_136_ + 343 x_137_ + 565 x_138_ + 254 x_139_ + 813 x_140_ + 673 x_141_ + 453 x_142_ + 311 x_143_ + 334 x_144_ + 939 x_145_ + 507 x_146_ + 158 x_147_ + 402 x_148_ + 183 x_149_ + 219 x_150_ + 185 x_151_ + 431 x_152_ + 440 x_153_ + 242 x_154_ + 717 x_155_ + 711 x_156_ + 460 x_157_ + 328 x_158_ + 490 x_159_ + 362 x_160_ + 153 x_161_ + 826 x_162_ + 50 x_163_ + 621 x_164_ + 753 x_165_ + 877 x_166_ + 941 x_167_ + 560 x_168_ + 53 x_169_ + 850 x_170_ + 222 x_171_ + 217 x_172_ + 219 x_173_ + 309 x_174_ + 43 x_175_ + 978 x_176_ + 167 x_177_ + 131 x_178_ + 727 x_179_ + 67 x_180_ + 947 x_181_ + 158 x_182_ + 695 x_183_ + 431 x_184_ + 774 x_185_ + 754 x_186_ + 727 x_187_ + 327 x_188_ + 421 x_189_ + 797 x_190_ + 834 x_191_ + 465 x_192_ + 205 x_193_ + 505 x_194_ + 195 x_195_ + 134 x_196_ + 660 x_197_ + 912 x_198_ + 295 x_199_ + 430 x_200_ + 778 x_201_ + 252 x_202_ + 806 x_203_ + 212 x_204_ + 482 x_205_ + 204 x_206_ + 46 x_207_ + 233 x_208_ + 480 x_209_ + 957 x_210_ + 190 x_211_ + 842 x_212_ + 531 x_213_ + 527 x_214_ + 931 x_215_ + 144 x_216_ + 103 x_217_ + 331 x_218_ + 556 x_219_ + 275 x_220_ + 273 x_221_ + 469 x_222_ + 246 x_223_ + 502 x_224_ + 337 x_225_ + 717 x_226_ + 759 x_227_ + 817 x_228_ + 758 x_229_ + 373 x_230_ + 58 x_231_ + 417 x_232_ + 950 x_233_ + 722 x_234_ + 495 x_235_ + 439 x_236_ + 648 x_237_ + 346 x_238_ + 592 x_239_ + 891 x_240_ + 383 x_241_ + 746 x_242_ + 252 x_243_ + 46 x_244_ + 862 x_245_ + 165 x_246_ + 284 x_247_ + 98 x_248_ + 116 x_249_ + 651 x_250_ <= 31495
c10: 1 s_9_ + 470 x_1_ + 131 x_2_ + 726 x_3_ + 392 x_4_ + 277 x_5_ + 938 x_6_ + 695 x_7_ + 567 x_8_ + 837 x_9_ + 5 x_10_ + 425 x_11_ + 482 x_12_ + 823 x_13_ + 568 x_14_ + 440 x_15_ + 899 x_16_ + 329 x_17_ + 106 x_18_ + 955 x_19_ + 784 x_20_ + 586 x_21_ + 391 x_22_ + 122 x_23_ + 481 x_24_ + 400 x_25_ + 33 x_26_ + 462 x_27_ + 984 x_28_ + 546 x_29_ + 861 x_30_ + 171 x_31_ + 316 x_32_ + 517 x_33_ + 430 x_34_ + 854 x_35_ + 614 x_36_ + 415 x_37_ + 421 x_38_ + 94 x_39_ + 384 x_40_ + 613 x_41_ + 763 x_42_ + 324 x_43_ + 305 x_44_ + 813 x_45_ + 812 x_46_ + 866 x_47_ + 881 x_48_ + 827 x_49_ + 844 x_50_ + 541 x_51_ + 636 x_52_ + 331 x_53_ + 518 x_54_ + 386 x_55_ + 65 x_56_ + 675 x_57_ + 345 x_58_ + 906 x_59_ + 200 x_60_ + 678 x_61_ + 953 x_62_ + 605 x_63_ + 149 x_64_ + 760 x_65_ + 206 x_66_ + 319 x_67_ + 791 x_68_ + 317 x_69_ + 174 x_70_ + 861 x_71_ + 415 x_72_ + 216 x_73_ + 955 x_74_ + 247 x_75_ + 977 x_76_ + 725 x_77_ + 957 x_78_ + 587 x_79_ + 916 x_80_ + 133 x_81_ + 854 x_82_ + 132 x_83_ + 328 x_84_ + 836 x_85_ + 240 x_86_ + 607 x_87_ + 92 x_88_ + 668 x_89_ + 862 x_90_ + 201 x_91_ + 870 x_92_ + 808 x_93_ + 237 x_94_ + 266 x_95_ + 127 x_96_ + 816 x_97_ + 56 x_98_ + 147 x_99_ + 420 x_100_ + 807 x_101_ + 606 x_102_ + 302 x_103_ + 132 x_104_ + 166 x_105_ + 405 x_106_ + 345 x_107_ + 706 x_108_ + 886 x_109_ + 458 x_110_ + 634 x_111_ + 474 x_112_ + 104 x_113_ + 832 x_114_ + 282 x_115_ + 355 x_116_ + 740 x_117_ + 100 x_118_ + 425 x_119_ + 378 x_120_ + 988 x_121_ + 890 x_122_ + 645 x_123_ + 352 x_124_ + 462 x_125_ + 761 x_126_ + 210 x_127_ + 448 x_128_ + 620 x_129_ + 7 x_130_ + 720 x_131_ + 995 x_132_ + 108 x_133_ + 701 x_134_ + 159 x_135_ + 159 x_136_ + 693 x_137_ + 968 x_138_ + 596 x_139_ + 540 x_140_ + 256 x_141_ + 117 x_142_ + 321 x_143_ + 253 x_144_ + 683 x_145_ + 201 x_146_ + 437 x_147_ + 822 x_148_ + 852 x_149_ + 827 x_150_ + 992 x_151_ + 657 x_152_ + 794 x_153_ + 67 x_154_ + 893 x_155_ + 80 x_156_ + 339 x_157_ + 383 x_158_ + 469 x_159_ + 2 x_160_ + 588 x_161_ + 649 x_162_ + 247 x_163_ + 158 x_164_ + 148 x_165_ + 626 x_166_ + 690 x_167_ + 113 x_168_ + 120 x_169_ + 765 x_170_ + 102 x_171_ + 527 x_172_ + 36 x_173_ + 683 x_174_ + 934 x_175_ + 99 x_176_ + 598 x_177_ + 186 x_178_ + 102 x_179_ + 599 x_180_ + 915 x_181_ + 261 x_182_ + 668 x_183_ + 890 x_184_ + 262 x_185_ + 225 x_186_ + 496 x_187_ + 557 x_188_ + 68 x_189_ + 141 x_190_ + 283 x_191_ + 364 x_192_ + 225 x_193_ + 71 x_194_ + 65 x_195_ + 84 x_196_ + 952 x_197_ + 662 x_198_ + 125 x_199_ + 761 x_200_ + 12 x_201_ + 643 x_202_ + 793 x_203_ + 628 x_204_ + 522 x_205_ + 487 x_206_ + 202 x_207_ + 550 x_208_ + 826 x_209_ + 739 x_210_ + 909 x_211_ + 400 x_212_ + 74 x_213_ + 353 x_214_ + 21 x_215_ + 958 x_216_ + 657 x_217_ + 766 x_218_ + 295 x_219_ + 127 x_220_ + 915 x_221_ + 188 x_222_ + 404 x_223_ + 102 x_224_ + 282 x_225_ + 857 x_226_ + 100 x_227_ + 21 x_228_ + 15 x_229_ + 201 x_230_ + 906 x_231_ + 862 x_232_ + 259 x_233_ + 484 x_234_ + 491 x_235_ + 802 x_236_ + 945 x_237_ + 735 x_238_ + 598 x_239_ + 901 x_240_ + 431 x_241_ + 843 x_242_ + 850 x_243_ + 8 x_244_ + 872 x_245_ + 472 x_246_ + 131 x_247_ + 428 x_248_ + 490 x_249_ + 48 x_250_ <= 30586
c11: 1 s_10_ + 27 x_1_ + 903 x_2_ + 312 x_3_ + 91 x_4_ + 559 x_5_ + 400 x_6_ + 368 x_7_ + 622 x_8_ + 873 x_9_ + 522 x_10_ + 466 x_11_ + 818 x_12_ + 447 x_13_ + 98 x_14_ + 301 x_15_ + 662 x_16_ + 77 x_17_ + 849 x_18_ + 705 x_19_ + 820 x_20_ + 336 x_21_ + 65 x_22_ + 724 x_23_ + 211 x_24_ + 742 x_25_ + 47 x_26_ + 789 x_27_ + 98 x_28_ + 517 x_29_ + 860 x_30_ + 826 x_31_ + 464 x_32_ + 18 x_33_ + 139 x_34_ + 394 x_35_ + 763 x_36_ + 150 x_37_ + 202 x_38_ + 802 x_39_ + 711 x_40_ + 32 x_41_ + 745 x_42_ + 368 x_43_ + 666 x_44_ + 677 x_45_ + 69 x_46_ + 57 x_47_ + 585 x_48_ + 328 x_49_ + 177 x_50_ + 139 x_51_ + 709 x_52_ + 73 x_53_ + 944 x_54_ + 873 x_55_ + 587 x_56_ + 526 x_57_ + 445 x_58_ + 706 x_59_ + 359 x_60_ + 445 x_61_ + 199 x_62_ + 744 x_63_ + 669 x_64_ + 957 x_65_ + 93 x_66_ + 161 x_67_ + 764 x_68_ + 624 x_69_ + 605 x_70_ + 224 x_71_ + 732 x_72_ + 49 x_73_ + 156 x_74_ + 185 x_75_ + 313 x_76_ + 196 x_77_ + 365 x_78_ + 535 x_79_ + 391 x_80_ + 306 x_81_ + 730 x_82_ + 446 x_83_ + 788 x_84_ + 977 x_85_ + 900 x_86_ + 991 x_87_ + 211 x_88_ + 973 x_89_ + 666 x_90_ + 438 x_91_ + 494 x_92_ + 690 x_93_ + 379 x_94_ + 413 x_95_ + 280 x_96_ + 588 x_97_ + 396 x_98_ + 782 x_99_ + 534 x_100_ + 100 x_101_ + 696 x_102_ + 827 x_103_ + 324 x_104_ + 524 x_105_ + 522 x_106_ + 782 x_107_ + 207 x_108_ + 116 x_109_ + 500 x_110_ + 296 x_111_ + 478 x_112_ + 740 x_113_ + 989 x_114_ + 298 x_115_ + 318 x_116_ + 424 x_117_ + 676 x_118_ + 813 x_119_ + 354 x_120_ + 978 x_121_ + 319 x_122_ + 666 x_123_ + 392 x_124_ + 931 x_125_ + 258 x_126_ + 248 x_127_ + 249 x_128_ + 319 x_129_ + 448 x_130_ + 897 x_131_ + 160 x_132_ + 980 x_133_ + 715 x_134_ + 587 x_135_ + 856 x_136_ + 112 x_137_ + 451 x_138_ + 495 x_139_ + 675 x_140_ + 525 x_141_ + 440 x_142_ + 379 x_143_ + 278 x_144_ + 182 x_145_ + 577 x_146_ + 464 x_147_ + 678 x_148_ + 534 x_149_ + 776 x_150_ + 556 x_151_ + 481 x_152_ + 29 x_153_ + 243 x_154_ + 309 x_155_ + 588 x_156_ + 130 x_157_ + 147 x_158_ + 217 x_159_ + 720 x_160_ + 614 x_161_ + 25 x_162_ + 240 x_163_ + 75 x_164_ + 566 x_165_ + 126 x_166_ + 263 x_167_ + 728 x_168_ + 135 x_169_ + 624 x_170_ + 755 x_171_ + 926 x_172_ + 719 x_173_ + 75 x_174_ + 913 x_175_ + 953 x_176_ + 776 x_177_ + 885 x_178_ + 184 x_179_ + 658 x_180_ + 867 x_181_ + 624 x_182_ + 523 x_183_ + 159 x_184_ + 974 x_185_ + 190 x_186_ + 383 x_187_ + 963 x_188_ + 453 x_189_ + 46 x_190_ + 841 x_191_ + 868 x_192_ + 65 x_193_ + 440 x_194_ + 486 x_195_ + 127 x_196_ + 212 x_197_ + 313 x_198_ + 631 x_199_ + 67 x_200_ + 200 x_201_ + 23 x_202_ + 930 x_203_ + 47 x_204_ + 506 x_205_ + 284 x_206_ + 809 x_207_ + 925 x_208_ + 794 x_209_ + 916 x_210_ + 97 x_211_ + 395 x_212_ + 495 x_213_ + 101 x_214_ + 266 x_215_ + 382 x_216_ + 716 x_217_ + 912 x_218_ + 609 x_219_ + 813 x_220_ + 45 x_221_ + 179 x_222_ + 656 x_223_ + 902 x_224_ + 856 x_225_ + 308 x_226_ + 240 x_227_ + 811 x_228_ + 940 x_229_ + 117 x_230_ + 556 x_231_ + 34 x_232_ + 810 x_233_ + 706 x_234_ + 325 x_235_ + 8 x_236_ + 366 x_237_ + 332 x_238_ + 228 x_239_ + 651 x_240_ + 100 x_241_ + 435 x_242_ + 243 x_243_ + 209 x_244_ + 466 x_245_ + 5 x_246_ + 890 x_247_ + 940 x_248_ + 825 x_249_ + 1 x_250_ <= 30020
c1: 1 ss_1_ + 556 x_1_ + 736 x_2_ + 301 x_3_ + 111 x_4_ + 704 x_5_ + 408 x_6_ + 163 x_7_ + 315 x_8_ + 670 x_9_ + 457 x_10_ + 357 x_11_ + 916 x_12_ + 614 x_13_ + 60 x_14_ + 373 x_15_ + 182 x_16_ + 129 x_17_ + 767 x_18_ + 896 x_19_ + 178 x_20_ + 975 x_21_ + 226 x_22_ + 404 x_23_ + 833 x_24_ + 575 x_25_ + 340 x_26_ + 321 x_27_ + 580 x_28_ + 425 x_29_ + 955 x_30_ + 739 x_31_ + 473 x_32_ + 946 x_33_ + 666 x_34_ + 630 x_35_ + 462 x_36_ + 841 x_37_ + 2 x_38_ + 778 x_39_ + 714 x_40_ + 855 x_41_ + 768 x_42_ + 141 x_43_ + 847 x_44_ + 325 x_45_ + 765 x_46_ + 10 x_47_ + 162 x_48_ + 208 x_49_ + 981 x_50_ + 638 x_51_ + 184 x_52_ + 124 x_53_ + 910 x_54_ + 332 x_55_ + 634 x_56_ + 555 x_57_ + 55 x_58_ + 396 x_59_ + 23 x_60_ + 171 x_61_ + 310 x_62_ + 181 x_63_ + 378 x_64_ + 600 x_65_ + 742 x_66_ + 275 x_67_ + 601 x_68_ + 951 x_69_ + 731 x_70_ + 166 x_71_ + 659 x_72_ + 15 x_73_ + 230 x_74_ + 577 x_75_ + 807 x_76_ + 420 x_77_ + 862 x_78_ + 974 x_79_ + 991 x_80_ + 795 x_81_ + 938 x_82_ + 792 x_83_ + 647 x_84_ + 59 x_85_ + 991 x_86_ + 759 x_87_ + 627 x_88_ + 328 x_89_ + 902 x_90_ + 629 x_91_ + 510 x_92_ + 103 x_93_ + 788 x_94_ + 73 x_95_ + 379 x_96_ + 573 x_97_ + 783 x_98_ + 310 x_99_ + 38 x_100_ + 700 x_101_ + 342 x_102_ + 533 x_103_ + 681 x_104_ + 300 x_105_ + 205 x_106_ + 855 x_107_ + 69 x_108_ + 523 x_109_ + 311 x_110_ + 669 x_111_ + 887 x_112_ + 130 x_113_ + 177 x_114_ + 103 x_115_ + 110 x_116_ + 623 x_117_ + 985 x_118_ + 69 x_119_ + 61 x_120_ + 511 x_121_ + 331 x_122_ + 493 x_123_ + 688 x_124_ + 307 x_125_ + 751 x_126_ + 731 x_127_ + 797 x_128_ + 726 x_129_ + 939 x_130_ + 813 x_131_ + 341 x_132_ + 713 x_133_ + 335 x_134_ + 15 x_135_ + 43 x_136_ + 335 x_137_ + 850 x_138_ + 303 x_139_ + 288 x_140_ + 492 x_141_ + 577 x_142_ + 626 x_143_ + 7 x_144_ + 768 x_145_ + 693 x_146_ + 170 x_147_ + 199 x_148_ + 304 x_149_ + 650 x_150_ + 644 x_151_ + 258 x_152_ + 363 x_153_ + 631 x_154_ + 924 x_155_ + 780 x_156_ + 987 x_157_ + 221 x_158_ + 11 x_159_ + 415 x_160_ + 19 x_161_ + 345 x_162_ + 860 x_163_ + 357 x_164_ + 174 x_165_ + 915 x_166_ + 242 x_167_ + 575 x_168_ + 719 x_169_ + 793 x_170_ + 462 x_171_ + 663 x_172_ + 152 x_173_ + 893 x_174_ + 471 x_175_ + 614 x_176_ + 581 x_177_ + 911 x_178_ + 868 x_179_ + 579 x_180_ + 373 x_181_ + 665 x_182_ + 634 x_183_ + 412 x_184_ + 254 x_185_ + 432 x_186_ + 273 x_187_ + 281 x_188_ + 561 x_189_ + 643 x_190_ + 781 x_191_ + 83 x_192_ + 755 x_193_ + 271 x_194_ + 873 x_195_ + 146 x_196_ + 670 x_197_ + 703 x_198_ + 90 x_199_ + 63 x_200_ + 712 x_201_ + 67 x_202_ + 555 x_203_ + 835 x_204_ + 405 x_205_ + 178 x_206_ + 923 x_207_ + 591 x_208_ + 723 x_209_ + 351 x_210_ + 505 x_211_ + 178 x_212_ + 427 x_213_ + 532 x_214_ + 72 x_215_ + 850 x_216_ + 539 x_217_ + 892 x_218_ + 386 x_219_ + 394 x_220_ + 778 x_221_ + 173 x_222_ + 462 x_223_ + 153 x_225_ + 641 x_226_ + 470 x_227_ + 370 x_228_ + 554 x_229_ + 141 x_230_ + 800 x_231_ + 585 x_232_ + 345 x_233_ + 872 x_234_ + 956 x_235_ + 560 x_236_ + 805 x_237_ + 585 x_238_ + 222 x_239_ + 460 x_240_ + 130 x_241_ + 236 x_242_ + 400 x_243_ + 660 x_244_ + 637 x_245_ + 547 x_246_ + 237 x_247_ + 406 x_248_ + 654 x_249_ + 62 x_250_ >= 30973
Bounds
s_1_ <= 0
s_2_ <= 0
s_3_ <= 0
s_4_ <= 0
s_5_ <= 0
s_6_ <= 0
s_7_ <= 0
s_8_ <= 0
s_9_ <= 0
s_10_ <= 0
ss_1_ >= 0
Binary
x_1_
x_2_
x_3_
x_4_
x_5_
x_6_
x_7_
x_8_
x_9_
x_10_
x_11_
x_12_
x_13_
x_14_
x_15_
x_16_
x_17_
x_18_
x_19_
x_20_
x_21_
x_22_
x_23_
x_24_
x_25_
x_26_
x_27_
x_28_
x_29_
x_30_
x_31_
x_32_
x_33_
x_34_
x_35_
x_36_
x_37_
x_38_
x_39_
x_40_
x_41_
x_42_
x_43_
x_44_
x_45_
x_46_
x_47_
x_48_
x_49_
x_50_
x_51_
x_52_
x_53_
x_54_
x_55_
x_56_
x_57_
x_58_
x_59_
x_60_
x_61_
x_62_
x_63_
x_64_
x_65_
x_66_
x_67_
x_68_
x_69_
x_70_
x_71_
x_72_
x_73_
x_74_
x_75_
x_76_
x_77_
x_78_
x_79_
x_80_
x_81_
x_82_
x_83_
x_84_
x_85_
x_86_
x_87_
x_88_
x_89_
x_90_
x_91_
x_92_
x_93_
x_94_
x_95_
x_96_
x_97_
x_98_
x_99_
x_100_
x_101_
x_102_
x_103_
x_104_
x_105_
x_106_
x_107_
x_108_
x_109_
x_110_
x_111_
x_112_
x_113_
x_114_
x_115_
x_116_
x_117_
x_118_
x_119_
x_120_
x_121_
x_122_
x_123_
x_124_
x_125_
x_126_
x_127_
x_128_
x_129_
x_130_
x_131_
x_132_
x_133_
x_134_
x_135_
x_136_
x_137_
x_138_
x_139_
x_140_
x_141_
x_142_
x_143_
x_144_
x_145_
x_146_
x_147_
x_148_
x_149_
x_150_
x_151_
x_152_
x_153_
x_154_
x_155_
x_156_
x_157_
x_158_
x_159_
x_160_
x_161_
x_162_
x_163_
x_164_
x_165_
x_166_
x_167_
x_168_
x_169_
x_170_
x_171_
x_172_
x_173_
x_174_
x_175_
x_176_
x_177_
x_178_
x_179_
x_180_
x_181_
x_182_
x_183_
x_184_
x_185_
x_186_
x_187_
x_188_
x_189_
x_190_
x_191_
x_192_
x_193_
x_194_
x_195_
x_196_
x_197_
x_198_
x_199_
x_200_
x_201_
x_202_
x_203_
x_204_
x_205_
x_206_
x_207_
x_208_
x_209_
x_210_
x_211_
x_212_
x_213_
x_214_
x_215_
x_216_
x_217_
x_218_
x_219_
x_220_
x_221_
x_222_
x_223_
x_224_
x_225_
x_226_
x_227_
x_228_
x_229_
x_230_
x_231_
x_232_
x_233_
x_234_
x_235_
x_236_
x_237_
x_238_
x_239_
x_240_
x_241_
x_242_
x_243_
x_244_
x_245_
x_246_
x_247_
x_248_
x_249_
x_250_
End
